NAME germination_srl_ilp
* Max problem is converted into Min one
ROWS
 N  OBJ
 L  constraint1_4490
 L  constraint1_6490
 L  constraint1_4080
 L  constraint1_6151
 L  constraint1_6152
 L  constraint1_6154
 L  constraint1_6155
 L  constraint1_6153
 L  constraint1_6150
 L  constraint1_2350
 L  constraint1_4300
 L  constraint1_2820
 L  constraint2_4490
 L  constraint2_4491
 L  constraint2_4492
 L  constraint2_4493
 L  constraint2_6490
 L  constraint2_6491
 L  constraint2_6492
 L  constraint2_6493
 L  constraint2_4080
 L  constraint2_4081
 L  constraint2_4082
 L  constraint2_4083
 L  constraint2_6150
 L  constraint2_6151
 L  constraint2_6152
 L  constraint2_6153
 L  constraint2_2350
 L  constraint2_2351
 L  constraint2_2352
 L  constraint2_2353
 L  constraint2_4300
 L  constraint2_4301
 L  constraint2_4302
 L  constraint2_4303
 L  constraint2_2820
 L  constraint2_2821
 L  constraint2_2822
 L  constraint2_2823
COLUMNS
    MARKER    'MARKER'                 'INTORG'
    Z_449_0_0  OBJ       -5.7001308288472273e-03
    Z_449_0_0  constraint1_4490  1
    Z_449_0_0  constraint2_4490  1
    Z_449_0_1  OBJ       -1.0135134441470807e-02
    Z_449_0_1  constraint1_4490  1
    Z_449_0_1  constraint2_4491  1
    Z_449_0_2  OBJ       -4.0063007935799261e-01
    Z_449_0_2  constraint1_4490  1
    Z_449_0_2  constraint2_4492  1
    Z_449_0_3  OBJ       -1.3122350361319989e-02
    Z_449_0_3  constraint1_4490  1
    Z_449_0_3  constraint2_4493  1
    Z_649_0_0  OBJ       -3.1060069389975211e-02
    Z_649_0_0  constraint1_6490  1
    Z_649_0_0  constraint2_6490  1
    Z_649_0_1  OBJ       -4.7958017565976209e-02
    Z_649_0_1  constraint1_6490  1
    Z_649_0_1  constraint2_6491  1
    Z_649_0_2  OBJ       -4.2806954419912563e-03
    Z_649_0_2  constraint1_6490  1
    Z_649_0_2  constraint2_6492  1
    Z_649_0_3  OBJ       -1.7238574914005880e-01
    Z_649_0_3  constraint1_6490  1
    Z_649_0_3  constraint2_6493  1
    Z_408_0_0  OBJ       -2.3519774811010353e-02
    Z_408_0_0  constraint1_4080  1
    Z_408_0_0  constraint2_4080  1
    Z_408_0_1  OBJ       -2.6816591326782230e-01
    Z_408_0_1  constraint1_4080  1
    Z_408_0_1  constraint2_4081  1
    Z_408_0_2  OBJ       -1.3374342632252756e-02
    Z_408_0_2  constraint1_4080  1
    Z_408_0_2  constraint2_4082  1
    Z_408_0_3  OBJ       -8.1357832523439158e-02
    Z_408_0_3  constraint1_4080  1
    Z_408_0_3  constraint2_4083  1
    Z_615_1_0  OBJ       -1.7211810508540825e-02
    Z_615_1_0  constraint1_6151  1
    Z_615_1_0  constraint2_6150  1
    Z_615_1_1  OBJ       -2.6266668481031541e-02
    Z_615_1_1  constraint1_6151  1
    Z_615_1_1  constraint2_6151  1
    Z_615_1_2  OBJ       -2.0217101128071770e-02
    Z_615_1_2  constraint1_6151  1
    Z_615_1_2  constraint2_6152  1
    Z_615_1_3  OBJ       -2.2115712435529539e-02
    Z_615_1_3  constraint1_6151  1
    Z_615_1_3  constraint2_6153  1
    Z_615_2_0  OBJ       -1.3073870363048147e-02
    Z_615_2_0  constraint1_6152  1
    Z_615_2_0  constraint2_6150  1
    Z_615_2_1  OBJ       -2.2717334844952610e-02
    Z_615_2_1  constraint1_6152  1
    Z_615_2_1  constraint2_6151  1
    Z_615_2_2  OBJ       -3.8211013966484297e-03
    Z_615_2_2  constraint1_6152  1
    Z_615_2_2  constraint2_6152  1
    Z_615_2_3  OBJ       -2.0937099676216146e-02
    Z_615_2_3  constraint1_6152  1
    Z_615_2_3  constraint2_6153  1
    Z_615_4_0  OBJ       -6.3675538410918331e-03
    Z_615_4_0  constraint1_6154  1
    Z_615_4_0  constraint2_6150  1
    Z_615_4_1  OBJ       -2.0960846963405635e-02
    Z_615_4_1  constraint1_6154  1
    Z_615_4_1  constraint2_6151  1
    Z_615_4_2  OBJ       -1.0296496287104827e-01
    Z_615_4_2  constraint1_6154  1
    Z_615_4_2  constraint2_6152  1
    Z_615_4_3  OBJ       -1.2779949250303841e-02
    Z_615_4_3  constraint1_6154  1
    Z_615_4_3  constraint2_6153  1
    Z_615_5_0  OBJ       -6.3675538410918331e-03
    Z_615_5_0  constraint1_6155  1
    Z_615_5_0  constraint2_6150  1
    Z_615_5_1  OBJ       -2.0960846963405635e-02
    Z_615_5_1  constraint1_6155  1
    Z_615_5_1  constraint2_6151  1
    Z_615_5_2  OBJ       -1.0296496287104827e-01
    Z_615_5_2  constraint1_6155  1
    Z_615_5_2  constraint2_6152  1
    Z_615_5_3  OBJ       -1.2779949250303841e-02
    Z_615_5_3  constraint1_6155  1
    Z_615_5_3  constraint2_6153  1
    Z_615_3_0  OBJ       -1.5698813028052407e-02
    Z_615_3_0  constraint1_6153  1
    Z_615_3_0  constraint2_6150  1
    Z_615_3_1  OBJ       -2.3576131421520343e-02
    Z_615_3_1  constraint1_6153  1
    Z_615_3_1  constraint2_6151  1
    Z_615_3_2  OBJ       -2.4138181275803030e-03
    Z_615_3_2  constraint1_6153  1
    Z_615_3_2  constraint2_6152  1
    Z_615_3_3  OBJ       -7.8555384005563333e-02
    Z_615_3_3  constraint1_6153  1
    Z_615_3_3  constraint2_6153  1
    Z_615_0_0  OBJ       -1.5698813028052407e-02
    Z_615_0_0  constraint1_6150  1
    Z_615_0_0  constraint2_6150  1
    Z_615_0_1  OBJ       -2.3576131421520343e-02
    Z_615_0_1  constraint1_6150  1
    Z_615_0_1  constraint2_6151  1
    Z_615_0_2  OBJ       -2.4138181275803030e-03
    Z_615_0_2  constraint1_6150  1
    Z_615_0_2  constraint2_6152  1
    Z_615_0_3  OBJ       -7.8555384005563333e-02
    Z_615_0_3  constraint1_6150  1
    Z_615_0_3  constraint2_6153  1
    Z_235_0_0  OBJ       -1.1446561729233573e-01
    Z_235_0_0  constraint1_2350  1
    Z_235_0_0  constraint2_2350  1
    Z_235_0_1  OBJ       -4.3680108535535306e-01
    Z_235_0_1  constraint1_2350  1
    Z_235_0_1  constraint2_2351  1
    Z_235_0_2  OBJ       -1.4274717201746279e-02
    Z_235_0_2  constraint1_2350  1
    Z_235_0_2  constraint2_2352  1
    Z_235_0_3  OBJ       -7.2450331376217189e-02
    Z_235_0_3  constraint1_2350  1
    Z_235_0_3  constraint2_2353  1
    Z_430_0_0  OBJ       -4.5457130281738034e-03
    Z_430_0_0  constraint1_4300  1
    Z_430_0_0  constraint2_4300  1
    Z_430_0_1  OBJ       -1.0829231337458989e-02
    Z_430_0_1  constraint1_4300  1
    Z_430_0_1  constraint2_4301  1
    Z_430_0_2  OBJ       -4.1563857692435119e-01
    Z_430_0_2  constraint1_4300  1
    Z_430_0_2  constraint2_4302  1
    Z_430_0_3  OBJ       -1.5916797002140035e-02
    Z_430_0_3  constraint1_4300  1
    Z_430_0_3  constraint2_4303  1
    Z_282_0_0  OBJ       -1.0944306179841734e-02
    Z_282_0_0  constraint1_2820  1
    Z_282_0_0  constraint2_2820  1
    Z_282_0_1  OBJ       -4.4114452730842496e-01
    Z_282_0_1  constraint1_2820  1
    Z_282_0_1  constraint2_2821  1
    Z_282_0_2  OBJ       -4.2062975392047506e-03
    Z_282_0_2  constraint1_2820  1
    Z_282_0_2  constraint2_2822  1
    Z_282_0_3  OBJ       -3.7043898825499827e-02
    Z_282_0_3  constraint1_2820  1
    Z_282_0_3  constraint2_2823  1
    MARKER    'MARKER'                 'INTEND'
RHS
    RHS1      constraint1_4490  1
    RHS1      constraint1_6490  1
    RHS1      constraint1_4080  1
    RHS1      constraint1_6151  1
    RHS1      constraint1_6152  1
    RHS1      constraint1_6154  1
    RHS1      constraint1_6155  1
    RHS1      constraint1_6153  1
    RHS1      constraint1_6150  1
    RHS1      constraint1_2350  1
    RHS1      constraint1_4300  1
    RHS1      constraint1_2820  1
    RHS1      constraint2_4490  1
    RHS1      constraint2_4491  1
    RHS1      constraint2_4492  1
    RHS1      constraint2_4493  1
    RHS1      constraint2_6490  1
    RHS1      constraint2_6491  1
    RHS1      constraint2_6492  1
    RHS1      constraint2_6493  1
    RHS1      constraint2_4080  1
    RHS1      constraint2_4081  1
    RHS1      constraint2_4082  1
    RHS1      constraint2_4083  1
    RHS1      constraint2_6150  1
    RHS1      constraint2_6151  1
    RHS1      constraint2_6152  1
    RHS1      constraint2_6153  1
    RHS1      constraint2_2350  1
    RHS1      constraint2_2351  1
    RHS1      constraint2_2352  1
    RHS1      constraint2_2353  1
    RHS1      constraint2_4300  1
    RHS1      constraint2_4301  1
    RHS1      constraint2_4302  1
    RHS1      constraint2_4303  1
    RHS1      constraint2_2820  1
    RHS1      constraint2_2821  1
    RHS1      constraint2_2822  1
    RHS1      constraint2_2823  1
BOUNDS
 UP BND1      Z_449_0_0  1
 UP BND1      Z_449_0_1  1
 UP BND1      Z_449_0_2  1
 UP BND1      Z_449_0_3  1
 UP BND1      Z_649_0_0  1
 UP BND1      Z_649_0_1  1
 UP BND1      Z_649_0_2  1
 UP BND1      Z_649_0_3  1
 UP BND1      Z_408_0_0  1
 UP BND1      Z_408_0_1  1
 UP BND1      Z_408_0_2  1
 UP BND1      Z_408_0_3  1
 UP BND1      Z_615_1_0  1
 UP BND1      Z_615_1_1  1
 UP BND1      Z_615_1_2  1
 UP BND1      Z_615_1_3  1
 UP BND1      Z_615_2_0  1
 UP BND1      Z_615_2_1  1
 UP BND1      Z_615_2_2  1
 UP BND1      Z_615_2_3  1
 UP BND1      Z_615_4_0  1
 UP BND1      Z_615_4_1  1
 UP BND1      Z_615_4_2  1
 UP BND1      Z_615_4_3  1
 UP BND1      Z_615_5_0  1
 UP BND1      Z_615_5_1  1
 UP BND1      Z_615_5_2  1
 UP BND1      Z_615_5_3  1
 UP BND1      Z_615_3_0  1
 UP BND1      Z_615_3_1  1
 UP BND1      Z_615_3_2  1
 UP BND1      Z_615_3_3  1
 UP BND1      Z_615_0_0  1
 UP BND1      Z_615_0_1  1
 UP BND1      Z_615_0_2  1
 UP BND1      Z_615_0_3  1
 UP BND1      Z_235_0_0  1
 UP BND1      Z_235_0_1  1
 UP BND1      Z_235_0_2  1
 UP BND1      Z_235_0_3  1
 UP BND1      Z_430_0_0  1
 UP BND1      Z_430_0_1  1
 UP BND1      Z_430_0_2  1
 UP BND1      Z_430_0_3  1
 UP BND1      Z_282_0_0  1
 UP BND1      Z_282_0_1  1
 UP BND1      Z_282_0_2  1
 UP BND1      Z_282_0_3  1
QUADOBJ
    Z_649_0_0  Z_408_0_0  -6.4675888786227015e-02
    Z_649_0_0  Z_615_1_0  -1.1765993802933968e-03
    Z_649_0_0  Z_615_3_0  -4.5303172735809936e-02
    Z_649_0_0  Z_615_0_0  -4.5303172735809936e-02
    Z_649_0_0  Z_235_0_0  -8.0416271247234480e-02
    Z_649_0_0  Z_430_0_0  -1.3797235940034999e-04
    Z_649_0_0  Z_282_0_0  -2.2365630826769557e-02
    Z_649_0_1  Z_408_0_1  -6.4675888786227015e-02
    Z_649_0_1  Z_615_1_1  -1.1765993802933968e-03
    Z_649_0_1  Z_615_3_1  -4.5303172735809936e-02
    Z_649_0_1  Z_615_0_1  -4.5303172735809936e-02
    Z_649_0_1  Z_235_0_1  -8.0416271247234480e-02
    Z_649_0_1  Z_430_0_1  -1.3797235940034999e-04
    Z_649_0_1  Z_282_0_1  -2.2365630826769557e-02
    Z_649_0_2  Z_408_0_2  -6.4675888786227015e-02
    Z_649_0_2  Z_615_1_2  -1.1765993802933968e-03
    Z_649_0_2  Z_615_3_2  -4.5303172735809936e-02
    Z_649_0_2  Z_615_0_2  -4.5303172735809936e-02
    Z_649_0_2  Z_235_0_2  -8.0416271247234480e-02
    Z_649_0_2  Z_430_0_2  -1.3797235940034999e-04
    Z_649_0_2  Z_282_0_2  -2.2365630826769557e-02
    Z_649_0_3  Z_408_0_3  -6.4675888786227015e-02
    Z_649_0_3  Z_615_1_3  -1.1765993802933968e-03
    Z_649_0_3  Z_615_3_3  -4.5303172735809936e-02
    Z_649_0_3  Z_615_0_3  -4.5303172735809936e-02
    Z_649_0_3  Z_235_0_3  -8.0416271247234480e-02
    Z_649_0_3  Z_430_0_3  -1.3797235940034999e-04
    Z_649_0_3  Z_282_0_3  -2.2365630826769557e-02
    Z_408_0_0  Z_615_5_0  -4.4881298332095355e-05
    Z_408_0_0  Z_615_3_0  -6.4675888786227015e-02
    Z_408_0_0  Z_615_0_0  -6.4675888786227015e-02
    Z_408_0_0  Z_235_0_0  -6.4675888786227015e-02
    Z_408_0_1  Z_615_5_1  -4.4881298332095355e-05
    Z_408_0_1  Z_615_3_1  -6.4675888786227015e-02
    Z_408_0_1  Z_615_0_1  -6.4675888786227015e-02
    Z_408_0_1  Z_235_0_1  -6.4675888786227015e-02
    Z_408_0_2  Z_615_5_2  -4.4881298332095355e-05
    Z_408_0_2  Z_615_3_2  -6.4675888786227015e-02
    Z_408_0_2  Z_615_0_2  -6.4675888786227015e-02
    Z_408_0_2  Z_235_0_2  -6.4675888786227015e-02
    Z_408_0_3  Z_615_5_3  -4.4881298332095355e-05
    Z_408_0_3  Z_615_3_3  -6.4675888786227015e-02
    Z_408_0_3  Z_615_0_3  -6.4675888786227015e-02
    Z_408_0_3  Z_235_0_3  -6.4675888786227015e-02
    Z_615_1_0  Z_430_0_0  -1.4478473325423791e-04
    Z_615_1_1  Z_430_0_1  -1.4478473325423791e-04
    Z_615_1_2  Z_430_0_2  -1.4478473325423791e-04
    Z_615_1_3  Z_430_0_3  -1.4478473325423791e-04
    Z_615_5_0  Z_282_0_0  -1.2567542722193854e-03
    Z_615_5_1  Z_282_0_1  -1.2567542722193854e-03
    Z_615_5_2  Z_282_0_2  -1.2567542722193854e-03
    Z_615_5_3  Z_282_0_3  -1.2567542722193854e-03
    Z_615_3_0  Z_235_0_0  -8.0416271247234480e-02
    Z_615_3_0  Z_282_0_0  -2.2365630826769557e-02
    Z_615_3_1  Z_235_0_1  -8.0416271247234480e-02
    Z_615_3_1  Z_282_0_1  -2.2365630826769557e-02
    Z_615_3_2  Z_235_0_2  -8.0416271247234480e-02
    Z_615_3_2  Z_282_0_2  -2.2365630826769557e-02
    Z_615_3_3  Z_235_0_3  -8.0416271247234480e-02
    Z_615_3_3  Z_282_0_3  -2.2365630826769557e-02
    Z_615_0_0  Z_235_0_0  -8.0416271247234480e-02
    Z_615_0_0  Z_282_0_0  -2.2365630826769557e-02
    Z_615_0_1  Z_235_0_1  -8.0416271247234480e-02
    Z_615_0_1  Z_282_0_1  -2.2365630826769557e-02
    Z_615_0_2  Z_235_0_2  -8.0416271247234480e-02
    Z_615_0_2  Z_282_0_2  -2.2365630826769557e-02
    Z_615_0_3  Z_235_0_3  -8.0416271247234480e-02
    Z_615_0_3  Z_282_0_3  -2.2365630826769557e-02
    Z_235_0_0  Z_282_0_0  -3.3281403788636171e-02
    Z_235_0_1  Z_282_0_1  -3.3281403788636171e-02
    Z_235_0_2  Z_282_0_2  -3.3281403788636171e-02
    Z_235_0_3  Z_282_0_3  -3.3281403788636171e-02
ENDATA
